
Gurobi 9.1.1 (win64) logging started Tue Apr 12 11:13:16 2022

Changed value of parameter LogFile to ./Log/Pattern_Appro_solver_50_order_10_batch.log
   Prev:   Default: 
Gurobi Optimizer version 9.1.1 build v9.1.1rc0 (win64)
Thread count: 6 physical cores, 12 logical processors, using up to 12 threads
Optimize a model with 537 rows, 950 columns and 2820 nonzeros
Model fingerprint: 0xe2c46623
Variable types: 0 continuous, 950 integer (920 binary)
Coefficient statistics:
  Matrix range     [1e+00, 5e+00]
  Objective range  [1e+00, 4e+01]
  Bounds range     [1e+00, 2e+00]
  RHS range        [1e+00, 5e+00]
Found heuristic solution: objective 1685.0000000
Presolve removed 257 rows and 331 columns
Presolve time: 0.01s
Presolved: 280 rows, 619 columns, 1815 nonzeros
Variable types: 0 continuous, 619 integer (609 binary)

Root relaxation: objective 8.084167e+02, 712 iterations, 0.01 seconds

    Nodes    |    Current Node    |     Objective Bounds      |     Work
 Expl Unexpl |  Obj  Depth IntInf | Incumbent    BestBd   Gap | It/Node Time

     0     0  808.41667    0   51 1685.00000  808.41667  52.0%     -    0s
H    0     0                    1253.0000000  808.41667  35.5%     -    0s
H    0     0                    1233.0000000  808.41667  34.4%     -    0s
H    0     0                    1207.0000000  808.41667  33.0%     -    0s
H    0     0                    1205.0000000  808.41667  32.9%     -    0s
H    0     0                    1189.0000000  808.41667  32.0%     -    0s
H    0     0                    1161.0000000  808.41667  30.4%     -    0s
     0     0  851.56385    0  139 1161.00000  851.56385  26.7%     -    0s
     0     0  853.38930    0  107 1161.00000  853.38930  26.5%     -    0s
     0     0  853.45195    0  120 1161.00000  853.45195  26.5%     -    0s
     0     0  853.45195    0  121 1161.00000  853.45195  26.5%     -    0s
H    0     0                    1149.0000000  853.45195  25.7%     -    0s
H    0     0                    1137.0000000  853.45195  24.9%     -    0s
     0     0  876.52210    0  137 1137.00000  876.52210  22.9%     -    0s
     0     0  881.60943    0  180 1137.00000  881.60943  22.5%     -    0s
     0     0  882.14438    0  169 1137.00000  882.14438  22.4%     -    0s
     0     0  882.14441    0  172 1137.00000  882.14441  22.4%     -    0s
H    0     0                    1133.0000000  882.14441  22.1%     -    0s
     0     0  891.75715    0  229 1133.00000  891.75715  21.3%     -    0s
H    0     0                    1125.0000000  891.75715  20.7%     -    0s
     0     0  896.82920    0  246 1125.00000  896.82920  20.3%     -    0s
H    0     0                    1123.0000000  896.82920  20.1%     -    0s
     0     0  898.99939    0  293 1123.00000  898.99939  19.9%     -    0s
     0     0  899.27252    0  248 1123.00000  899.27252  19.9%     -    0s
     0     0  899.39747    0  255 1123.00000  899.39747  19.9%     -    0s
     0     0  899.51129    0  256 1123.00000  899.51129  19.9%     -    0s
     0     0  899.54353    0  255 1123.00000  899.54353  19.9%     -    0s
     0     0  905.87159    0  273 1123.00000  905.87159  19.3%     -    0s
     0     0  908.62562    0  322 1123.00000  908.62562  19.1%     -    0s
     0     0  909.58434    0  310 1123.00000  909.58434  19.0%     -    0s
H    0     0                    1115.0000000  909.58434  18.4%     -    0s
     0     0  909.86631    0  331 1115.00000  909.86631  18.4%     -    0s
     0     0  909.92257    0  332 1115.00000  909.92257  18.4%     -    0s
H    0     0                    1114.0000000  909.92257  18.3%     -    0s
     0     0  913.96628    0  391 1114.00000  913.96628  18.0%     -    0s
     0     0  917.10078    0  439 1114.00000  917.10078  17.7%     -    0s
     0     0  918.54006    0  446 1114.00000  918.54006  17.5%     -    0s
     0     0  918.81959    0  436 1114.00000  918.81959  17.5%     -    0s
     0     0  918.89972    0  433 1114.00000  918.89972  17.5%     -    0s
     0     0  922.71047    0  462 1114.00000  922.71047  17.2%     -    0s
     0     0  924.52223    0  488 1114.00000  924.52223  17.0%     -    0s
     0     0  925.92169    0  499 1114.00000  925.92169  16.9%     -    0s
     0     0  926.74899    0  517 1114.00000  926.74899  16.8%     -    0s
     0     0  927.06225    0  519 1114.00000  927.06225  16.8%     -    0s
     0     0  927.22917    0  519 1114.00000  927.22917  16.8%     -    0s
     0     0  927.27665    0  501 1114.00000  927.27665  16.8%     -    0s
     0     0  928.68721    0  499 1114.00000  928.68721  16.6%     -    0s
     0     0  928.97619    0  482 1114.00000  928.97619  16.6%     -    0s
     0     0  929.09374    0  503 1114.00000  929.09374  16.6%     -    0s
     0     0  929.76064    0  496 1114.00000  929.76064  16.5%     -    0s
     0     0  929.76064    0  496 1114.00000  929.76064  16.5%     -    0s
     0     2  929.76064    0  495 1114.00000  929.76064  16.5%     -    0s
H  187   159                    1107.0000000  932.32545  15.8%   120    1s
H  261   210                    1104.0000000  932.32545  15.6%   126    1s
H  372   305                    1094.0000000  941.74476  13.9%   132    1s
H  388   320                    1092.0000000  941.74476  13.8%   132    1s
H  503   354                    1090.0000000  941.74476  13.6%   130    2s
H  569   370                    1084.0000000  946.16617  12.7%   127    2s
  1340   827 1025.19732   18  499 1084.00000  960.89614  11.4%   129    5s
H 1725   987                    1078.0000000  967.78099  10.2%   141    6s
  3615  1612 1065.02582   28  357 1078.00000  992.59479  7.92%   129   10s
  8023  3812 1062.24798   34  230 1078.00000 1017.22131  5.64%   111   15s
 13064  5891 1061.01254   30  331 1078.00000 1025.43113  4.88%   106   20s
 19310  7686 1049.08347   19  334 1078.00000 1033.43513  4.13%  99.4   25s
 26086  9640     cutoff   39      1078.00000 1038.59845  3.66%  94.1   30s
 32950 11065     cutoff   24      1078.00000 1042.14098  3.33%  90.6   35s
 36688 11814 1073.57552   19  373 1078.00000 1044.20079  3.14%  89.1   47s
 39795 11825     cutoff   27      1078.00000 1046.04655  2.96%  89.3   50s
 42920 11597 1064.02890   20  379 1078.00000 1048.27020  2.76%  90.8   55s
 47540 10856 1075.43808   25  235 1078.00000 1051.94501  2.42%  92.6   60s

Cutting planes:
  Gomory: 64
  Cover: 185
  Implied bound: 2
  Projected implied bound: 1
  Clique: 24
  MIR: 17
  Flow cover: 40
  Zero half: 32
  Mod-K: 1
  RLT: 45
  Relax-and-lift: 2

Explored 48373 nodes (4497755 simplex iterations) in 60.02 seconds
Thread count was 12 (of 12 available processors)

Solution count 10: 1078 1084 1090 ... 1123

Time limit reached
Best objective 1.078000000000e+03, best bound 1.053000000000e+03, gap 2.3191%

Gurobi 9.1.1 (win64) logging started Sun Apr 17 20:52:22 2022

Changed value of parameter LogFile to ./Log/Pattern_Appro_solver_50_order_10_batch.log
   Prev:   Default: 
Gurobi Optimizer version 9.1.1 build v9.1.1rc0 (win64)
Thread count: 6 physical cores, 12 logical processors, using up to 12 threads
Optimize a model with 540 rows, 980 columns and 2930 nonzeros
Model fingerprint: 0xe1869def
Variable types: 0 continuous, 980 integer (980 binary)
Coefficient statistics:
  Matrix range     [1e+00, 5e+00]
  Objective range  [1e+00, 4e+01]
  Bounds range     [1e+00, 1e+00]
  RHS range        [1e+00, 5e+00]
Found heuristic solution: objective 1568.0000000
Presolve removed 223 rows and 313 columns
Presolve time: 0.00s
Presolved: 317 rows, 667 columns, 2091 nonzeros
Variable types: 0 continuous, 667 integer (667 binary)

Root relaxation: objective 6.968333e+02, 985 iterations, 0.01 seconds

    Nodes    |    Current Node    |     Objective Bounds      |     Work
 Expl Unexpl |  Obj  Depth IntInf | Incumbent    BestBd   Gap | It/Node Time

     0     0  696.83333    0   66 1568.00000  696.83333  55.6%     -    0s
H    0     0                    1239.0000000  696.83333  43.8%     -    0s
H    0     0                    1231.0000000  696.83333  43.4%     -    0s
H    0     0                    1225.0000000  696.83333  43.1%     -    0s
H    0     0                    1215.0000000  696.83333  42.6%     -    0s
H    0     0                    1206.0000000  696.83333  42.2%     -    0s
     0     0  739.85684    0  131 1206.00000  739.85684  38.7%     -    0s
H    0     0                    1198.0000000  739.85684  38.2%     -    0s
     0     0  747.29618    0  124 1198.00000  747.29618  37.6%     -    0s
H    0     0                    1174.0000000  747.29618  36.3%     -    0s
     0     0  770.55911    0  202 1174.00000  770.55911  34.4%     -    0s
H    0     0                    1160.0000000  770.55911  33.6%     -    0s
H    0     0                    1151.0000000  770.55911  33.1%     -    0s
     0     0  775.81504    0  255 1151.00000  775.81504  32.6%     -    0s
     0     0  776.05061    0  258 1151.00000  776.05061  32.6%     -    0s
     0     0  776.26612    0  272 1151.00000  776.26612  32.6%     -    0s
     0     0  776.44080    0  261 1151.00000  776.44080  32.5%     -    0s
     0     0  776.45779    0  264 1151.00000  776.45779  32.5%     -    0s
H    0     0                    1137.0000000  776.45779  31.7%     -    0s
H    0     0                    1135.0000000  776.45779  31.6%     -    0s
     0     0  793.01821    0  363 1135.00000  793.01821  30.1%     -    0s
     0     0  795.42541    0  354 1135.00000  795.42541  29.9%     -    0s
H    0     0                    1128.0000000  795.42541  29.5%     -    0s
     0     0  797.79984    0  417 1128.00000  797.79984  29.3%     -    0s
     0     0  798.48629    0  437 1128.00000  798.48629  29.2%     -    0s
     0     0  798.74900    0  440 1128.00000  798.74900  29.2%     -    0s
     0     0  798.86875    0  444 1128.00000  798.86875  29.2%     -    0s
     0     0  798.98598    0  441 1128.00000  798.98598  29.2%     -    0s
     0     0  799.00807    0  448 1128.00000  799.00807  29.2%     -    0s
H    0     0                    1121.0000000  799.00807  28.7%     -    0s
H    0     0                    1119.0000000  799.00807  28.6%     -    0s
     0     0  805.30994    0  482 1119.00000  805.30994  28.0%     -    0s
     0     0  807.27700    0  492 1119.00000  807.27700  27.9%     -    0s
H    0     0                    1110.0000000  807.27700  27.3%     -    0s
     0     0  811.72122    0  522 1110.00000  811.72122  26.9%     -    0s
     0     0  811.87689    0  520 1110.00000  811.87689  26.9%     -    0s
     0     0  812.01896    0  517 1110.00000  812.01896  26.8%     -    0s
     0     0  812.40233    0  526 1110.00000  812.40233  26.8%     -    0s
     0     0  812.54839    0  527 1110.00000  812.54839  26.8%     -    0s
     0     0  812.59805    0  536 1110.00000  812.59805  26.8%     -    0s
     0     0  818.81530    0  543 1110.00000  818.81530  26.2%     -    0s
     0     0  821.74908    0  558 1110.00000  821.74908  26.0%     -    0s
     0     0  822.93270    0  561 1110.00000  822.93270  25.9%     -    0s
     0     0  823.23992    0  552 1110.00000  823.23992  25.8%     -    0s
     0     0  823.34273    0  564 1110.00000  823.34273  25.8%     -    0s
     0     0  825.03739    0  561 1110.00000  825.03739  25.7%     -    0s
     0     0  825.51181    0  569 1110.00000  825.51181  25.6%     -    0s
     0     0  825.60949    0  573 1110.00000  825.60949  25.6%     -    0s
     0     0  825.93798    0  574 1110.00000  825.93798  25.6%     -    0s
     0     0  825.93798    0  573 1110.00000  825.93798  25.6%     -    0s
     0     2  825.93798    0  569 1110.00000  825.93798  25.6%     -    0s
H   31    43                    1103.0000000  832.86214  24.5%   186    0s
H   69    81                    1084.0000000  832.86214  23.2%   153    1s
H  195   176                    1075.0000000  832.86214  22.5%  89.7    1s
H  239   194                    1067.0000000  848.24822  20.5%   100    1s
  1280   814  904.51594   15  526 1067.00000  904.51594  15.2%   111    5s
  3819  1847  964.54393   32  338 1067.00000  928.75910  13.0%   121   10s
  8664  4790 1057.51536   28  211 1067.00000  953.10455  10.7%   109   15s
 13350  7541 1020.96157   33  252 1067.00000  962.70899  9.77%   102   20s
 19289 11158 1042.73215   35  233 1067.00000  971.61575  8.94%  97.9   25s
 26192 14886 1018.87668   36  323 1067.00000  977.64606  8.37%  93.1   30s
 31688 18122     cutoff   48      1067.00000  981.40102  8.02%  90.5   35s

Gurobi 9.1.1 (win64) logging started Sun Apr 17 20:53:21 2022

Changed value of parameter LogFile to ./Log/Pattern_Appro_solver_50_order_10_batch.log
   Prev:   Default: 
Gurobi Optimizer version 9.1.1 build v9.1.1rc0 (win64)
Thread count: 6 physical cores, 12 logical processors, using up to 12 threads
Optimize a model with 534 rows, 920 columns and 2690 nonzeros
Model fingerprint: 0x627a973f
Variable types: 0 continuous, 920 integer (870 binary)
Coefficient statistics:
  Matrix range     [1e+00, 5e+00]
  Objective range  [1e+00, 4e+01]
  Bounds range     [1e+00, 3e+00]
  RHS range        [1e+00, 5e+00]
Found heuristic solution: objective 1440.0000000
Presolve removed 250 rows and 324 columns
Presolve time: 0.00s
Presolved: 284 rows, 596 columns, 1996 nonzeros
Variable types: 0 continuous, 596 integer (557 binary)

Root relaxation: objective 5.509167e+02, 891 iterations, 0.01 seconds

    Nodes    |    Current Node    |     Objective Bounds      |     Work
 Expl Unexpl |  Obj  Depth IntInf | Incumbent    BestBd   Gap | It/Node Time

     0     0  550.91667    0   70 1440.00000  550.91667  61.7%     -    0s
H    0     0                    1120.0000000  550.91667  50.8%     -    0s
H    0     0                    1098.0000000  550.91667  49.8%     -    0s
H    0     0                    1050.0000000  550.91667  47.5%     -    0s
H    0     0                    1019.0000000  550.91667  45.9%     -    0s
H    0     0                    1007.0000000  550.91667  45.3%     -    0s
     0     0  603.23849    0  208 1007.00000  603.23849  40.1%     -    0s
H    0     0                    1001.0000000  603.23849  39.7%     -    0s
     0     0  605.61576    0  205 1001.00000  605.61576  39.5%     -    0s
     0     0  605.61656    0  207 1001.00000  605.61656  39.5%     -    0s
H    0     0                     993.0000000  605.61656  39.0%     -    0s
     0     0  624.80818    0  221  993.00000  624.80818  37.1%     -    0s
     0     0  627.37416    0  237  993.00000  627.37416  36.8%     -    0s
     0     0  628.15640    0  241  993.00000  628.15640  36.7%     -    0s
     0     0  628.17977    0  238  993.00000  628.17977  36.7%     -    0s
     0     0  636.25021    0  318  993.00000  636.25021  35.9%     -    0s
     0     0  638.50027    0  327  993.00000  638.50027  35.7%     -    0s
     0     0  639.30053    0  346  993.00000  639.30053  35.6%     -    0s
H    0     0                     985.0000000  639.30053  35.1%     -    0s
     0     0  639.77802    0  314  985.00000  639.77802  35.0%     -    0s
     0     0  639.88160    0  318  985.00000  639.88160  35.0%     -    0s
     0     0  639.89489    0  321  985.00000  639.89489  35.0%     -    0s
H    0     0                     983.0000000  639.89489  34.9%     -    0s
H    0     0                     963.0000000  639.89489  33.6%     -    0s
     0     0  644.53803    0  357  963.00000  644.53803  33.1%     -    0s
H    0     0                     954.0000000  644.53803  32.4%     -    0s
     0     0  647.02547    0  391  954.00000  647.02547  32.2%     -    0s
     0     0  647.86878    0  387  954.00000  647.86878  32.1%     -    0s
     0     0  648.03437    0  421  954.00000  648.03437  32.1%     -    0s
     0     0  648.26901    0  436  954.00000  648.26901  32.0%     -    0s
     0     0  648.34855    0  407  954.00000  648.34855  32.0%     -    0s
     0     0  650.18816    0  444  954.00000  650.18816  31.8%     -    0s
     0     0  651.64227    0  459  954.00000  651.64227  31.7%     -    0s
     0     0  652.17232    0  484  954.00000  652.17232  31.6%     -    0s
H    0     0                     946.0000000  652.17232  31.1%     -    0s
     0     0  652.29998    0  499  946.00000  652.29998  31.0%     -    0s
     0     0  652.58402    0  504  946.00000  652.58402  31.0%     -    0s
     0     0  652.62466    0  510  946.00000  652.62466  31.0%     -    0s
     0     0  655.88324    0  500  946.00000  655.88324  30.7%     -    0s
     0     0  656.32348    0  519  946.00000  656.32348  30.6%     -    0s
     0     0  656.48711    0  522  946.00000  656.48711  30.6%     -    0s
     0     0  656.68917    0  533  946.00000  656.68917  30.6%     -    0s
     0     0  656.76774    0  535  946.00000  656.76774  30.6%     -    0s
     0     0  657.36661    0  515  946.00000  657.36661  30.5%     -    0s
     0     0  657.36661    0  513  946.00000  657.36661  30.5%     -    0s
     0     2  657.36661    0  513  946.00000  657.36661  30.5%     -    0s
H  187   188                     938.0000000  660.28940  29.6%  84.2    0s
H  244   200                     930.0000000  660.50661  29.0%  78.6    1s
  1318   941  768.73712    8  527  930.00000  718.75039  22.7%   109    5s
  2982  1818  718.75039   18  488  930.00000  718.75039  22.7%   138   10s
  5764  3511  849.77694   41  228  930.00000  718.75039  22.7%   137   15s
  8007  5370  831.66320   45  259  930.00000  722.87879  22.3%   142   20s
 10661  7405  789.77018   25  398  930.00000  734.90527  21.0%   140   25s
 13315  9353  828.99006   30  322  930.00000  739.35831  20.5%   137   30s
 16404 11710  802.11486   29  376  930.00000  743.17580  20.1%   139   35s
 19221 13842  815.66933   29  330  930.00000  746.00243  19.8%   140   40s
 22448 16018  809.85125   30  327  930.00000  749.98804  19.4%   138   45s
 25852 18540  877.92625   51  273  930.00000  752.27485  19.1%   138   51s
 28923 20988  880.31931   40  240  930.00000  754.26233  18.9%   139   56s
 31329 22362  812.50235   38  357  930.00000  755.98579  18.7%   138   60s

Cutting planes:
  Gomory: 116
  Cover: 292
  Implied bound: 3
  Projected implied bound: 1
  Clique: 37
  MIR: 17
  StrongCG: 1
  Flow cover: 31
  Zero half: 25
  RLT: 46

Explored 32429 nodes (4445111 simplex iterations) in 60.03 seconds
Thread count was 12 (of 12 available processors)

Solution count 10: 930 938 946 ... 1007

Time limit reached
Best objective 9.300000000000e+02, best bound 7.570000000000e+02, gap 18.6022%

Gurobi 9.1.1 (win64) logging started Sun Apr 17 21:50:25 2022

Changed value of parameter LogFile to ./Log/Pattern_Appro_solver_50_order_10_batch.log
   Prev:   Default: 
Gurobi Optimizer version 9.1.1 build v9.1.1rc0 (win64)
Thread count: 6 physical cores, 12 logical processors, using up to 12 threads
Optimize a model with 533 rows, 910 columns and 2710 nonzeros
Model fingerprint: 0x8d79dc69
Variable types: 0 continuous, 910 integer (880 binary)
Coefficient statistics:
  Matrix range     [1e+00, 5e+00]
  Objective range  [1e+00, 4e+01]
  Bounds range     [1e+00, 4e+00]
  RHS range        [1e+00, 5e+00]
Found heuristic solution: objective 1459.0000000
Presolve removed 271 rows and 345 columns
Presolve time: 0.00s
Presolved: 262 rows, 565 columns, 1865 nonzeros
Variable types: 0 continuous, 565 integer (546 binary)

Root relaxation: objective 6.437500e+02, 841 iterations, 0.01 seconds

    Nodes    |    Current Node    |     Objective Bounds      |     Work
 Expl Unexpl |  Obj  Depth IntInf | Incumbent    BestBd   Gap | It/Node Time

     0     0  643.75000    0   52 1459.00000  643.75000  55.9%     -    0s
H    0     0                    1066.0000000  643.75000  39.6%     -    0s
H    0     0                    1057.0000000  644.75000  39.0%     -    0s
     0     0  687.38731    0  165 1057.00000  687.38731  35.0%     -    0s
H    0     0                    1051.0000000  687.38731  34.6%     -    0s
H    0     0                    1022.0000000  687.38731  32.7%     -    0s
     0     0  691.68029    0  140 1022.00000  691.68029  32.3%     -    0s
     0     0  691.77929    0  142 1022.00000  691.77929  32.3%     -    0s
H    0     0                    1006.0000000  691.77929  31.2%     -    0s
H    0     0                     989.0000000  691.77929  30.1%     -    0s
H    0     0                     982.0000000  691.77929  29.6%     -    0s
     0     0  709.23265    0  192  982.00000  709.23265  27.8%     -    0s
     0     0  711.63901    0  201  982.00000  711.63901  27.5%     -    0s
     0     0  712.04298    0  200  982.00000  712.04298  27.5%     -    0s
     0     0  712.39075    0  214  982.00000  712.39075  27.5%     -    0s
     0     0  712.46953    0  224  982.00000  712.46953  27.4%     -    0s
     0     0  712.50704    0  209  982.00000  712.50704  27.4%     -    0s
     0     0  712.50777    0  214  982.00000  712.50777  27.4%     -    0s
     0     0  719.47416    0  259  982.00000  719.47416  26.7%     -    0s
H    0     0                     975.0000000  719.47416  26.2%     -    0s
     0     0  721.31199    0  253  975.00000  721.31199  26.0%     -    0s
     0     0  721.85372    0  276  975.00000  721.85372  26.0%     -    0s
     0     0  721.98442    0  266  975.00000  721.98442  26.0%     -    0s
     0     0  722.22155    0  292  975.00000  722.22155  25.9%     -    0s
     0     0  722.25299    0  301  975.00000  722.25299  25.9%     -    0s
     0     0  730.37724    0  325  975.00000  730.37724  25.1%     -    0s
     0     0  732.10509    0  337  975.00000  732.10509  24.9%     -    0s
     0     0  732.63648    0  369  975.00000  732.63648  24.9%     -    0s
     0     0  732.66849    0  350  975.00000  732.66849  24.9%     -    0s
     0     0  739.02929    0  380  975.00000  739.02929  24.2%     -    0s
     0     0  740.30744    0  391  975.00000  740.30744  24.1%     -    0s
     0     0  741.40099    0  370  975.00000  741.40099  24.0%     -    0s
     0     0  741.83044    0  407  975.00000  741.83044  23.9%     -    0s
     0     0  742.14639    0  434  975.00000  742.14639  23.9%     -    0s
     0     0  742.35308    0  453  975.00000  742.35308  23.9%     -    0s
     0     0  742.36263    0  450  975.00000  742.36263  23.9%     -    0s
     0     0  743.42302    0  465  975.00000  743.42302  23.8%     -    0s
     0     0  744.04990    0  468  975.00000  744.04990  23.7%     -    0s
     0     0  744.29766    0  439  975.00000  744.29766  23.7%     -    0s
     0     0  744.46383    0  426  975.00000  744.46383  23.6%     -    0s
     0     0  744.54620    0  478  975.00000  744.54620  23.6%     -    0s
     0     0  745.12004    0  484  975.00000  745.12004  23.6%     -    0s
     0     0  745.16455    0  493  975.00000  745.16455  23.6%     -    0s
     0     0  745.22613    0  492  975.00000  745.22613  23.6%     -    0s
     0     0  745.22613    0  491  975.00000  745.22613  23.6%     -    0s
     0     2  745.22613    0  491  975.00000  745.22613  23.6%     -    0s
H  178   155                     974.0000000  748.19044  23.2%   119    1s
H  249   212                     966.0000000  748.19044  22.5%   111    1s
H  279   229                     964.0000000  748.19044  22.4%   111    1s
  1298   905  903.90263   32  493  964.00000  767.88644  20.3%  93.6    5s
H 1620  1058                     957.0000000  768.99542  19.6%   107    6s
H 4406  2345                     956.0000000  777.29283  18.7%  95.3    9s
  4469  2447  909.46789   45  138  956.00000  781.76561  18.2%  95.4   10s
  9336  5551  909.14673   39  240  956.00000  813.55941  14.9%  91.3   15s
 15468  9646  935.96372   42  111  956.00000  822.00594  14.0%  89.8   20s
H18125 10954                     954.0000000  825.03111  13.5%  89.0   23s
 18298 12248  891.31705   44  209  954.00000  825.26776  13.5%  89.0   26s
 24420 15005  926.95173   46  211  954.00000  831.75918  12.8%  88.3   30s
H27052 15714                     950.0000000  834.20317  12.2%  87.5   32s
 30020 17612  933.10984   29  154  950.00000  837.07771  11.9%  86.8   35s
 36244 20054  932.04589   44  491  950.00000  841.12833  11.5%  85.9   46s
 36275 20075  879.89594   32  492  950.00000  841.12833  11.5%  85.8   50s
 36315 20101  905.85484   49  494  950.00000  841.12833  11.5%  85.7   55s
 36341 20122  841.12833   25  482  950.00000  841.12833  11.5%  85.9   60s

Cutting planes:
  Gomory: 47
  Cover: 110
  Clique: 11
  MIR: 15
  StrongCG: 1
  Flow cover: 67
  GUB cover: 1
  Zero half: 11
  RLT: 16

Explored 36343 nodes (3126872 simplex iterations) in 60.02 seconds
Thread count was 12 (of 12 available processors)

Solution count 10: 950 954 956 ... 989

Time limit reached
Best objective 9.500000000000e+02, best bound 8.420000000000e+02, gap 11.3684%
